p edge 65 64 27
e 1 56
e 1 54
e 2 61
e 2 15
e 2 11
e 3 23
e 3 44
e 3 11
e 4 48
e 4 51
e 4 58
e 5 39
e 6 40
e 6 43
e 6 17
e 6 29
e 7 53
e 8 18
e 8 33
e 8 64
e 8 45
e 9 56
e 10 23
e 11 50
e 11 38
e 12 13
e 12 39
e 12 41
e 14 56
e 15 35
e 16 19
e 16 25
e 16 26
e 17 58
e 20 45
e 21 28
e 21 65
e 22 34
e 22 56
e 24 29
e 24 61
e 25 49
e 26 48
e 27 36
e 28 46
e 29 36
e 30 39
e 31 41
e 32 59
e 35 63
e 37 57
e 38 59
e 41 47
e 42 50
e 45 47
e 45 50
e 46 54
e 46 62
e 46 59
e 50 55
e 51 53
e 52 57
e 52 59
e 54 60
